
;this file is automatically generated: Tue Feb 23 13:38:00 CST 2021

;declarations generated

(declare-fun oclExcludes ( Int Int) Bool)
(declare-fun class14_Class14BoolAttr0 ( Int) Bool)
(declare-fun type_06d20d84_f92d_45b0_a5a3_a8e6dbb4e20c_Class10 ( Int) Bool)
(declare-fun type_06d20d84_f92d_45b0_a5a3_a8e6dbb4e20c_Class11 ( Int) Bool)
(declare-fun type_06d20d84_f92d_45b0_a5a3_a8e6dbb4e20c_Class12 ( Int) Bool)
(declare-fun type_06d20d84_f92d_45b0_a5a3_a8e6dbb4e20c_Class28 ( Int) Bool)
(declare-fun type_06d20d84_f92d_45b0_a5a3_a8e6dbb4e20c_Class29 ( Int) Bool)
(declare-fun type_06d20d84_f92d_45b0_a5a3_a8e6dbb4e20c_Class24 ( Int) Bool)
(declare-fun type_06d20d84_f92d_45b0_a5a3_a8e6dbb4e20c_Class25 ( Int) Bool)
(declare-fun type_06d20d84_f92d_45b0_a5a3_a8e6dbb4e20c_Class26 ( Int) Bool)
(declare-fun type_06d20d84_f92d_45b0_a5a3_a8e6dbb4e20c_Class27 ( Int) Bool)
(declare-fun type_06d20d84_f92d_45b0_a5a3_a8e6dbb4e20c_Class31 ( Int) Bool)
(declare-fun type_06d20d84_f92d_45b0_a5a3_a8e6dbb4e20c_Class32 ( Int) Bool)
(declare-fun type_06d20d84_f92d_45b0_a5a3_a8e6dbb4e20c_Class33 ( Int) Bool)
(declare-fun type_06d20d84_f92d_45b0_a5a3_a8e6dbb4e20c_Class34 ( Int) Bool)
(declare-fun type_06d20d84_f92d_45b0_a5a3_a8e6dbb4e20c_Class30 ( Int) Bool)
(declare-fun Cardinality ( Int) Int)
(declare-fun type_06d20d84_f92d_45b0_a5a3_a8e6dbb4e20c_Class17 ( Int) Bool)
(declare-fun type_06d20d84_f92d_45b0_a5a3_a8e6dbb4e20c_Class18 ( Int) Bool)
(declare-fun type_06d20d84_f92d_45b0_a5a3_a8e6dbb4e20c_Class19 ( Int) Bool)
(declare-fun type_06d20d84_f92d_45b0_a5a3_a8e6dbb4e20c_Class13 ( Int) Bool)
(declare-fun type_06d20d84_f92d_45b0_a5a3_a8e6dbb4e20c_Class14 ( Int) Bool)
(declare-fun type_06d20d84_f92d_45b0_a5a3_a8e6dbb4e20c_Class15 ( Int) Bool)
(declare-fun type_06d20d84_f92d_45b0_a5a3_a8e6dbb4e20c_Class16 ( Int) Bool)
(declare-fun type_06d20d84_f92d_45b0_a5a3_a8e6dbb4e20c_Class20 ( Int) Bool)
(declare-fun type_06d20d84_f92d_45b0_a5a3_a8e6dbb4e20c_Class21 ( Int) Bool)
(declare-fun type_06d20d84_f92d_45b0_a5a3_a8e6dbb4e20c_Class22 ( Int) Bool)
(declare-fun type_06d20d84_f92d_45b0_a5a3_a8e6dbb4e20c_Class23 ( Int) Bool)
(declare-fun type_06d20d84_f92d_45b0_a5a3_a8e6dbb4e20c_Class39 ( Int) Bool)
(declare-fun type_06d20d84_f92d_45b0_a5a3_a8e6dbb4e20c_Class35 ( Int) Bool)
(declare-fun type_06d20d84_f92d_45b0_a5a3_a8e6dbb4e20c_Class36 ( Int) Bool)
(declare-fun type_06d20d84_f92d_45b0_a5a3_a8e6dbb4e20c_Class37 ( Int) Bool)
(declare-fun type_06d20d84_f92d_45b0_a5a3_a8e6dbb4e20c_Class38 ( Int) Bool)
(declare-fun type_06d20d84_f92d_45b0_a5a3_a8e6dbb4e20c_Class42 ( Int) Bool)
(declare-fun type_06d20d84_f92d_45b0_a5a3_a8e6dbb4e20c_Class43 ( Int) Bool)
(declare-fun type_06d20d84_f92d_45b0_a5a3_a8e6dbb4e20c_Class44 ( Int) Bool)
(declare-fun type_06d20d84_f92d_45b0_a5a3_a8e6dbb4e20c_Class45 ( Int) Bool)
(declare-fun type_06d20d84_f92d_45b0_a5a3_a8e6dbb4e20c_Class40 ( Int) Bool)
(declare-fun type_06d20d84_f92d_45b0_a5a3_a8e6dbb4e20c_Class41 ( Int) Bool)
(declare-fun oclSelect ( Int Bool) Int)
(declare-fun obj_c4d4ad4f_7bf9_4b42_b322_fc345aaf3bd0 ( Int) Int)
(declare-fun Enum0 ( Int) Int)
(declare-fun Enum1 ( Int) Int)
(declare-fun Enum2 ( Int) Int)
(declare-fun type_06d20d84_f92d_45b0_a5a3_a8e6dbb4e20c_Class6 ( Int) Bool)
(declare-fun type_06d20d84_f92d_45b0_a5a3_a8e6dbb4e20c_Class7 ( Int) Bool)
(declare-fun type_06d20d84_f92d_45b0_a5a3_a8e6dbb4e20c_Class8 ( Int) Bool)
(declare-fun type_06d20d84_f92d_45b0_a5a3_a8e6dbb4e20c_Class9 ( Int) Bool)
(declare-fun type_06d20d84_f92d_45b0_a5a3_a8e6dbb4e20c_Class2 ( Int) Bool)
(declare-fun type_06d20d84_f92d_45b0_a5a3_a8e6dbb4e20c_Class3 ( Int) Bool)
(declare-fun type_06d20d84_f92d_45b0_a5a3_a8e6dbb4e20c_Class4 ( Int) Bool)
(declare-fun type_06d20d84_f92d_45b0_a5a3_a8e6dbb4e20c_Class5 ( Int) Bool)
(declare-fun type_06d20d84_f92d_45b0_a5a3_a8e6dbb4e20c_Class0 ( Int) Bool)
(declare-fun type_06d20d84_f92d_45b0_a5a3_a8e6dbb4e20c_Class1 ( Int) Bool)
(declare-fun container_ ( Int) Int)
(declare-fun oclIncludes ( Int Int) Bool)
(declare-fun ObjAt ( Int Int) Int)

;formula(s) generated
(assert (forall ((p Int)) (=> ( type_06d20d84_f92d_45b0_a5a3_a8e6dbb4e20c_Class14 p )  (and (>= ( Enum2 ( obj_c4d4ad4f_7bf9_4b42_b322_fc345aaf3bd0 p )  )  0) (<= ( Enum2 ( obj_c4d4ad4f_7bf9_4b42_b322_fc345aaf3bd0 p )  )  6)))))
(assert (! (forall ((v Int)) (=> (and (and (and (and (and (and (and ( type_06d20d84_f92d_45b0_a5a3_a8e6dbb4e20c_Class14 v )  ( type_06d20d84_f92d_45b0_a5a3_a8e6dbb4e20c_Class33 v ) ) ( type_06d20d84_f92d_45b0_a5a3_a8e6dbb4e20c_Class13 v ) ) ( type_06d20d84_f92d_45b0_a5a3_a8e6dbb4e20c_Class16 v ) ) ( type_06d20d84_f92d_45b0_a5a3_a8e6dbb4e20c_Class15 v ) ) ( type_06d20d84_f92d_45b0_a5a3_a8e6dbb4e20c_Class4 v ) ) ( type_06d20d84_f92d_45b0_a5a3_a8e6dbb4e20c_Class41 v ) ) ( type_06d20d84_f92d_45b0_a5a3_a8e6dbb4e20c_Class2 v ) ) (or (not ( class14_Class14BoolAttr0 ( obj_c4d4ad4f_7bf9_4b42_b322_fc345aaf3bd0 v )  )  ) (and (forall ((v Int)) (=> (and (and (and (and (and (and (and ( type_06d20d84_f92d_45b0_a5a3_a8e6dbb4e20c_Class14 v )  ( type_06d20d84_f92d_45b0_a5a3_a8e6dbb4e20c_Class33 v ) ) ( type_06d20d84_f92d_45b0_a5a3_a8e6dbb4e20c_Class13 v ) ) ( type_06d20d84_f92d_45b0_a5a3_a8e6dbb4e20c_Class16 v ) ) ( type_06d20d84_f92d_45b0_a5a3_a8e6dbb4e20c_Class15 v ) ) ( type_06d20d84_f92d_45b0_a5a3_a8e6dbb4e20c_Class4 v ) ) ( type_06d20d84_f92d_45b0_a5a3_a8e6dbb4e20c_Class41 v ) ) ( type_06d20d84_f92d_45b0_a5a3_a8e6dbb4e20c_Class2 v ) ) (not (= ( Enum2 ( obj_c4d4ad4f_7bf9_4b42_b322_fc345aaf3bd0 v )  )  6) ))) (forall ((v Int)) (=> (and (and (and (and (and (and (and ( type_06d20d84_f92d_45b0_a5a3_a8e6dbb4e20c_Class14 v )  ( type_06d20d84_f92d_45b0_a5a3_a8e6dbb4e20c_Class33 v ) ) ( type_06d20d84_f92d_45b0_a5a3_a8e6dbb4e20c_Class13 v ) ) ( type_06d20d84_f92d_45b0_a5a3_a8e6dbb4e20c_Class16 v ) ) ( type_06d20d84_f92d_45b0_a5a3_a8e6dbb4e20c_Class15 v ) ) ( type_06d20d84_f92d_45b0_a5a3_a8e6dbb4e20c_Class4 v ) ) ( type_06d20d84_f92d_45b0_a5a3_a8e6dbb4e20c_Class41 v ) ) ( type_06d20d84_f92d_45b0_a5a3_a8e6dbb4e20c_Class2 v ) ) (not (= ( Enum2 ( obj_c4d4ad4f_7bf9_4b42_b322_fc345aaf3bd0 v )  )  0) ))))))):named l0))
(assert (! (exists ((o Int)) (and (and (and ( type_06d20d84_f92d_45b0_a5a3_a8e6dbb4e20c_Class0 ( obj_c4d4ad4f_7bf9_4b42_b322_fc345aaf3bd0 o )  )  ( type_06d20d84_f92d_45b0_a5a3_a8e6dbb4e20c_Class22 ( obj_c4d4ad4f_7bf9_4b42_b322_fc345aaf3bd0 o )  ) ) ( type_06d20d84_f92d_45b0_a5a3_a8e6dbb4e20c_Class35 ( obj_c4d4ad4f_7bf9_4b42_b322_fc345aaf3bd0 o )  ) ) ( type_06d20d84_f92d_45b0_a5a3_a8e6dbb4e20c_Class2 ( obj_c4d4ad4f_7bf9_4b42_b322_fc345aaf3bd0 o )  ) )):named c0))
(assert (! (exists ((o Int)) ( type_06d20d84_f92d_45b0_a5a3_a8e6dbb4e20c_Class1 ( obj_c4d4ad4f_7bf9_4b42_b322_fc345aaf3bd0 o )  ) ):named c1))
(assert (! (exists ((o Int)) (and (and (and (and ( type_06d20d84_f92d_45b0_a5a3_a8e6dbb4e20c_Class10 ( obj_c4d4ad4f_7bf9_4b42_b322_fc345aaf3bd0 o )  )  ( type_06d20d84_f92d_45b0_a5a3_a8e6dbb4e20c_Class16 ( obj_c4d4ad4f_7bf9_4b42_b322_fc345aaf3bd0 o )  ) ) ( type_06d20d84_f92d_45b0_a5a3_a8e6dbb4e20c_Class15 ( obj_c4d4ad4f_7bf9_4b42_b322_fc345aaf3bd0 o )  ) ) ( type_06d20d84_f92d_45b0_a5a3_a8e6dbb4e20c_Class41 ( obj_c4d4ad4f_7bf9_4b42_b322_fc345aaf3bd0 o )  ) ) ( type_06d20d84_f92d_45b0_a5a3_a8e6dbb4e20c_Class2 ( obj_c4d4ad4f_7bf9_4b42_b322_fc345aaf3bd0 o )  ) )):named c2))
(assert (! (exists ((o Int)) ( type_06d20d84_f92d_45b0_a5a3_a8e6dbb4e20c_Class11 ( obj_c4d4ad4f_7bf9_4b42_b322_fc345aaf3bd0 o )  ) ):named c3))
(assert (! (exists ((o Int)) (and (and (and (and ( type_06d20d84_f92d_45b0_a5a3_a8e6dbb4e20c_Class12 ( obj_c4d4ad4f_7bf9_4b42_b322_fc345aaf3bd0 o )  )  ( type_06d20d84_f92d_45b0_a5a3_a8e6dbb4e20c_Class22 ( obj_c4d4ad4f_7bf9_4b42_b322_fc345aaf3bd0 o )  ) ) ( type_06d20d84_f92d_45b0_a5a3_a8e6dbb4e20c_Class35 ( obj_c4d4ad4f_7bf9_4b42_b322_fc345aaf3bd0 o )  ) ) ( type_06d20d84_f92d_45b0_a5a3_a8e6dbb4e20c_Class0 ( obj_c4d4ad4f_7bf9_4b42_b322_fc345aaf3bd0 o )  ) ) ( type_06d20d84_f92d_45b0_a5a3_a8e6dbb4e20c_Class2 ( obj_c4d4ad4f_7bf9_4b42_b322_fc345aaf3bd0 o )  ) )):named c4))
(assert (! (exists ((o Int)) (and (and (and ( type_06d20d84_f92d_45b0_a5a3_a8e6dbb4e20c_Class13 ( obj_c4d4ad4f_7bf9_4b42_b322_fc345aaf3bd0 o )  )  ( type_06d20d84_f92d_45b0_a5a3_a8e6dbb4e20c_Class16 ( obj_c4d4ad4f_7bf9_4b42_b322_fc345aaf3bd0 o )  ) ) ( type_06d20d84_f92d_45b0_a5a3_a8e6dbb4e20c_Class15 ( obj_c4d4ad4f_7bf9_4b42_b322_fc345aaf3bd0 o )  ) ) ( type_06d20d84_f92d_45b0_a5a3_a8e6dbb4e20c_Class2 ( obj_c4d4ad4f_7bf9_4b42_b322_fc345aaf3bd0 o )  ) )):named c5))
(assert (! (exists ((o Int)) (and (and (and (and (and (and (and ( type_06d20d84_f92d_45b0_a5a3_a8e6dbb4e20c_Class14 ( obj_c4d4ad4f_7bf9_4b42_b322_fc345aaf3bd0 o )  )  ( type_06d20d84_f92d_45b0_a5a3_a8e6dbb4e20c_Class33 ( obj_c4d4ad4f_7bf9_4b42_b322_fc345aaf3bd0 o )  ) ) ( type_06d20d84_f92d_45b0_a5a3_a8e6dbb4e20c_Class13 ( obj_c4d4ad4f_7bf9_4b42_b322_fc345aaf3bd0 o )  ) ) ( type_06d20d84_f92d_45b0_a5a3_a8e6dbb4e20c_Class16 ( obj_c4d4ad4f_7bf9_4b42_b322_fc345aaf3bd0 o )  ) ) ( type_06d20d84_f92d_45b0_a5a3_a8e6dbb4e20c_Class15 ( obj_c4d4ad4f_7bf9_4b42_b322_fc345aaf3bd0 o )  ) ) ( type_06d20d84_f92d_45b0_a5a3_a8e6dbb4e20c_Class4 ( obj_c4d4ad4f_7bf9_4b42_b322_fc345aaf3bd0 o )  ) ) ( type_06d20d84_f92d_45b0_a5a3_a8e6dbb4e20c_Class41 ( obj_c4d4ad4f_7bf9_4b42_b322_fc345aaf3bd0 o )  ) ) ( type_06d20d84_f92d_45b0_a5a3_a8e6dbb4e20c_Class2 ( obj_c4d4ad4f_7bf9_4b42_b322_fc345aaf3bd0 o )  ) )):named c6))
(assert (! (exists ((o Int)) (and ( type_06d20d84_f92d_45b0_a5a3_a8e6dbb4e20c_Class15 ( obj_c4d4ad4f_7bf9_4b42_b322_fc345aaf3bd0 o )  )  ( type_06d20d84_f92d_45b0_a5a3_a8e6dbb4e20c_Class2 ( obj_c4d4ad4f_7bf9_4b42_b322_fc345aaf3bd0 o )  ) )):named c7))
(assert (! (exists ((o Int)) (and (and ( type_06d20d84_f92d_45b0_a5a3_a8e6dbb4e20c_Class16 ( obj_c4d4ad4f_7bf9_4b42_b322_fc345aaf3bd0 o )  )  ( type_06d20d84_f92d_45b0_a5a3_a8e6dbb4e20c_Class15 ( obj_c4d4ad4f_7bf9_4b42_b322_fc345aaf3bd0 o )  ) ) ( type_06d20d84_f92d_45b0_a5a3_a8e6dbb4e20c_Class2 ( obj_c4d4ad4f_7bf9_4b42_b322_fc345aaf3bd0 o )  ) )):named c8))
(assert (! (exists ((o Int)) (and (and (and (and ( type_06d20d84_f92d_45b0_a5a3_a8e6dbb4e20c_Class17 ( obj_c4d4ad4f_7bf9_4b42_b322_fc345aaf3bd0 o )  )  ( type_06d20d84_f92d_45b0_a5a3_a8e6dbb4e20c_Class24 ( obj_c4d4ad4f_7bf9_4b42_b322_fc345aaf3bd0 o )  ) ) ( type_06d20d84_f92d_45b0_a5a3_a8e6dbb4e20c_Class26 ( obj_c4d4ad4f_7bf9_4b42_b322_fc345aaf3bd0 o )  ) ) ( type_06d20d84_f92d_45b0_a5a3_a8e6dbb4e20c_Class32 ( obj_c4d4ad4f_7bf9_4b42_b322_fc345aaf3bd0 o )  ) ) ( type_06d20d84_f92d_45b0_a5a3_a8e6dbb4e20c_Class2 ( obj_c4d4ad4f_7bf9_4b42_b322_fc345aaf3bd0 o )  ) )):named c9))
(assert (! (exists ((o Int)) ( type_06d20d84_f92d_45b0_a5a3_a8e6dbb4e20c_Class18 ( obj_c4d4ad4f_7bf9_4b42_b322_fc345aaf3bd0 o )  ) ):named c10))
(assert (! (exists ((o Int)) ( type_06d20d84_f92d_45b0_a5a3_a8e6dbb4e20c_Class19 ( obj_c4d4ad4f_7bf9_4b42_b322_fc345aaf3bd0 o )  ) ):named c11))
(assert (! (exists ((o Int)) ( type_06d20d84_f92d_45b0_a5a3_a8e6dbb4e20c_Class2 ( obj_c4d4ad4f_7bf9_4b42_b322_fc345aaf3bd0 o )  ) ):named c12))
(assert (! (exists ((o Int)) (and (and ( type_06d20d84_f92d_45b0_a5a3_a8e6dbb4e20c_Class20 ( obj_c4d4ad4f_7bf9_4b42_b322_fc345aaf3bd0 o )  )  ( type_06d20d84_f92d_45b0_a5a3_a8e6dbb4e20c_Class21 ( obj_c4d4ad4f_7bf9_4b42_b322_fc345aaf3bd0 o )  ) ) ( type_06d20d84_f92d_45b0_a5a3_a8e6dbb4e20c_Class2 ( obj_c4d4ad4f_7bf9_4b42_b322_fc345aaf3bd0 o )  ) )):named c13))
(assert (! (exists ((o Int)) (and ( type_06d20d84_f92d_45b0_a5a3_a8e6dbb4e20c_Class21 ( obj_c4d4ad4f_7bf9_4b42_b322_fc345aaf3bd0 o )  )  ( type_06d20d84_f92d_45b0_a5a3_a8e6dbb4e20c_Class2 ( obj_c4d4ad4f_7bf9_4b42_b322_fc345aaf3bd0 o )  ) )):named c14))
(assert (! (exists ((o Int)) (and (and ( type_06d20d84_f92d_45b0_a5a3_a8e6dbb4e20c_Class22 ( obj_c4d4ad4f_7bf9_4b42_b322_fc345aaf3bd0 o )  )  ( type_06d20d84_f92d_45b0_a5a3_a8e6dbb4e20c_Class35 ( obj_c4d4ad4f_7bf9_4b42_b322_fc345aaf3bd0 o )  ) ) ( type_06d20d84_f92d_45b0_a5a3_a8e6dbb4e20c_Class2 ( obj_c4d4ad4f_7bf9_4b42_b322_fc345aaf3bd0 o )  ) )):named c15))
(assert (! (exists ((o Int)) (and (and (and (and (and (and ( type_06d20d84_f92d_45b0_a5a3_a8e6dbb4e20c_Class23 ( obj_c4d4ad4f_7bf9_4b42_b322_fc345aaf3bd0 o )  )  ( type_06d20d84_f92d_45b0_a5a3_a8e6dbb4e20c_Class12 ( obj_c4d4ad4f_7bf9_4b42_b322_fc345aaf3bd0 o )  ) ) ( type_06d20d84_f92d_45b0_a5a3_a8e6dbb4e20c_Class22 ( obj_c4d4ad4f_7bf9_4b42_b322_fc345aaf3bd0 o )  ) ) ( type_06d20d84_f92d_45b0_a5a3_a8e6dbb4e20c_Class25 ( obj_c4d4ad4f_7bf9_4b42_b322_fc345aaf3bd0 o )  ) ) ( type_06d20d84_f92d_45b0_a5a3_a8e6dbb4e20c_Class35 ( obj_c4d4ad4f_7bf9_4b42_b322_fc345aaf3bd0 o )  ) ) ( type_06d20d84_f92d_45b0_a5a3_a8e6dbb4e20c_Class0 ( obj_c4d4ad4f_7bf9_4b42_b322_fc345aaf3bd0 o )  ) ) ( type_06d20d84_f92d_45b0_a5a3_a8e6dbb4e20c_Class2 ( obj_c4d4ad4f_7bf9_4b42_b322_fc345aaf3bd0 o )  ) )):named c16))
(assert (! (exists ((o Int)) (and (and (and ( type_06d20d84_f92d_45b0_a5a3_a8e6dbb4e20c_Class24 ( obj_c4d4ad4f_7bf9_4b42_b322_fc345aaf3bd0 o )  )  ( type_06d20d84_f92d_45b0_a5a3_a8e6dbb4e20c_Class26 ( obj_c4d4ad4f_7bf9_4b42_b322_fc345aaf3bd0 o )  ) ) ( type_06d20d84_f92d_45b0_a5a3_a8e6dbb4e20c_Class32 ( obj_c4d4ad4f_7bf9_4b42_b322_fc345aaf3bd0 o )  ) ) ( type_06d20d84_f92d_45b0_a5a3_a8e6dbb4e20c_Class2 ( obj_c4d4ad4f_7bf9_4b42_b322_fc345aaf3bd0 o )  ) )):named c17))
(assert (! (exists ((o Int)) (and (and (and (and (and ( type_06d20d84_f92d_45b0_a5a3_a8e6dbb4e20c_Class25 ( obj_c4d4ad4f_7bf9_4b42_b322_fc345aaf3bd0 o )  )  ( type_06d20d84_f92d_45b0_a5a3_a8e6dbb4e20c_Class12 ( obj_c4d4ad4f_7bf9_4b42_b322_fc345aaf3bd0 o )  ) ) ( type_06d20d84_f92d_45b0_a5a3_a8e6dbb4e20c_Class22 ( obj_c4d4ad4f_7bf9_4b42_b322_fc345aaf3bd0 o )  ) ) ( type_06d20d84_f92d_45b0_a5a3_a8e6dbb4e20c_Class35 ( obj_c4d4ad4f_7bf9_4b42_b322_fc345aaf3bd0 o )  ) ) ( type_06d20d84_f92d_45b0_a5a3_a8e6dbb4e20c_Class0 ( obj_c4d4ad4f_7bf9_4b42_b322_fc345aaf3bd0 o )  ) ) ( type_06d20d84_f92d_45b0_a5a3_a8e6dbb4e20c_Class2 ( obj_c4d4ad4f_7bf9_4b42_b322_fc345aaf3bd0 o )  ) )):named c18))
(assert (! (exists ((o Int)) (and (and ( type_06d20d84_f92d_45b0_a5a3_a8e6dbb4e20c_Class26 ( obj_c4d4ad4f_7bf9_4b42_b322_fc345aaf3bd0 o )  )  ( type_06d20d84_f92d_45b0_a5a3_a8e6dbb4e20c_Class32 ( obj_c4d4ad4f_7bf9_4b42_b322_fc345aaf3bd0 o )  ) ) ( type_06d20d84_f92d_45b0_a5a3_a8e6dbb4e20c_Class2 ( obj_c4d4ad4f_7bf9_4b42_b322_fc345aaf3bd0 o )  ) )):named c19))
(assert (! (exists ((o Int)) (and ( type_06d20d84_f92d_45b0_a5a3_a8e6dbb4e20c_Class27 ( obj_c4d4ad4f_7bf9_4b42_b322_fc345aaf3bd0 o )  )  ( type_06d20d84_f92d_45b0_a5a3_a8e6dbb4e20c_Class2 ( obj_c4d4ad4f_7bf9_4b42_b322_fc345aaf3bd0 o )  ) )):named c20))
(assert (! (exists ((o Int)) ( type_06d20d84_f92d_45b0_a5a3_a8e6dbb4e20c_Class28 ( obj_c4d4ad4f_7bf9_4b42_b322_fc345aaf3bd0 o )  ) ):named c21))
(assert (! (exists ((o Int)) ( type_06d20d84_f92d_45b0_a5a3_a8e6dbb4e20c_Class29 ( obj_c4d4ad4f_7bf9_4b42_b322_fc345aaf3bd0 o )  ) ):named c22))
(assert (! (exists ((o Int)) ( type_06d20d84_f92d_45b0_a5a3_a8e6dbb4e20c_Class3 ( obj_c4d4ad4f_7bf9_4b42_b322_fc345aaf3bd0 o )  ) ):named c23))
(assert (! (exists ((o Int)) (and ( type_06d20d84_f92d_45b0_a5a3_a8e6dbb4e20c_Class30 ( obj_c4d4ad4f_7bf9_4b42_b322_fc345aaf3bd0 o )  )  ( type_06d20d84_f92d_45b0_a5a3_a8e6dbb4e20c_Class2 ( obj_c4d4ad4f_7bf9_4b42_b322_fc345aaf3bd0 o )  ) )):named c24))
(assert (! (exists ((o Int)) (and (and (and (and ( type_06d20d84_f92d_45b0_a5a3_a8e6dbb4e20c_Class31 ( obj_c4d4ad4f_7bf9_4b42_b322_fc345aaf3bd0 o )  )  ( type_06d20d84_f92d_45b0_a5a3_a8e6dbb4e20c_Class16 ( obj_c4d4ad4f_7bf9_4b42_b322_fc345aaf3bd0 o )  ) ) ( type_06d20d84_f92d_45b0_a5a3_a8e6dbb4e20c_Class15 ( obj_c4d4ad4f_7bf9_4b42_b322_fc345aaf3bd0 o )  ) ) ( type_06d20d84_f92d_45b0_a5a3_a8e6dbb4e20c_Class41 ( obj_c4d4ad4f_7bf9_4b42_b322_fc345aaf3bd0 o )  ) ) ( type_06d20d84_f92d_45b0_a5a3_a8e6dbb4e20c_Class2 ( obj_c4d4ad4f_7bf9_4b42_b322_fc345aaf3bd0 o )  ) )):named c25))
(assert (! (exists ((o Int)) (and ( type_06d20d84_f92d_45b0_a5a3_a8e6dbb4e20c_Class32 ( obj_c4d4ad4f_7bf9_4b42_b322_fc345aaf3bd0 o )  )  ( type_06d20d84_f92d_45b0_a5a3_a8e6dbb4e20c_Class2 ( obj_c4d4ad4f_7bf9_4b42_b322_fc345aaf3bd0 o )  ) )):named c26))
(assert (! (exists ((o Int)) (and (and (and (and (and ( type_06d20d84_f92d_45b0_a5a3_a8e6dbb4e20c_Class33 ( obj_c4d4ad4f_7bf9_4b42_b322_fc345aaf3bd0 o )  )  ( type_06d20d84_f92d_45b0_a5a3_a8e6dbb4e20c_Class13 ( obj_c4d4ad4f_7bf9_4b42_b322_fc345aaf3bd0 o )  ) ) ( type_06d20d84_f92d_45b0_a5a3_a8e6dbb4e20c_Class16 ( obj_c4d4ad4f_7bf9_4b42_b322_fc345aaf3bd0 o )  ) ) ( type_06d20d84_f92d_45b0_a5a3_a8e6dbb4e20c_Class15 ( obj_c4d4ad4f_7bf9_4b42_b322_fc345aaf3bd0 o )  ) ) ( type_06d20d84_f92d_45b0_a5a3_a8e6dbb4e20c_Class41 ( obj_c4d4ad4f_7bf9_4b42_b322_fc345aaf3bd0 o )  ) ) ( type_06d20d84_f92d_45b0_a5a3_a8e6dbb4e20c_Class2 ( obj_c4d4ad4f_7bf9_4b42_b322_fc345aaf3bd0 o )  ) )):named c27))
(assert (! (exists ((o Int)) ( type_06d20d84_f92d_45b0_a5a3_a8e6dbb4e20c_Class34 ( obj_c4d4ad4f_7bf9_4b42_b322_fc345aaf3bd0 o )  ) ):named c28))
(assert (! (exists ((o Int)) (and ( type_06d20d84_f92d_45b0_a5a3_a8e6dbb4e20c_Class35 ( obj_c4d4ad4f_7bf9_4b42_b322_fc345aaf3bd0 o )  )  ( type_06d20d84_f92d_45b0_a5a3_a8e6dbb4e20c_Class2 ( obj_c4d4ad4f_7bf9_4b42_b322_fc345aaf3bd0 o )  ) )):named c29))
(assert (! (exists ((o Int)) ( type_06d20d84_f92d_45b0_a5a3_a8e6dbb4e20c_Class36 ( obj_c4d4ad4f_7bf9_4b42_b322_fc345aaf3bd0 o )  ) ):named c30))
(assert (! (exists ((o Int)) ( type_06d20d84_f92d_45b0_a5a3_a8e6dbb4e20c_Class37 ( obj_c4d4ad4f_7bf9_4b42_b322_fc345aaf3bd0 o )  ) ):named c31))
(assert (! (exists ((o Int)) (and ( type_06d20d84_f92d_45b0_a5a3_a8e6dbb4e20c_Class38 ( obj_c4d4ad4f_7bf9_4b42_b322_fc345aaf3bd0 o )  )  ( type_06d20d84_f92d_45b0_a5a3_a8e6dbb4e20c_Class2 ( obj_c4d4ad4f_7bf9_4b42_b322_fc345aaf3bd0 o )  ) )):named c32))
(assert (! (exists ((o Int)) ( type_06d20d84_f92d_45b0_a5a3_a8e6dbb4e20c_Class39 ( obj_c4d4ad4f_7bf9_4b42_b322_fc345aaf3bd0 o )  ) ):named c33))
(assert (! (exists ((o Int)) (and (and (and (and (and (and ( type_06d20d84_f92d_45b0_a5a3_a8e6dbb4e20c_Class4 ( obj_c4d4ad4f_7bf9_4b42_b322_fc345aaf3bd0 o )  )  ( type_06d20d84_f92d_45b0_a5a3_a8e6dbb4e20c_Class33 ( obj_c4d4ad4f_7bf9_4b42_b322_fc345aaf3bd0 o )  ) ) ( type_06d20d84_f92d_45b0_a5a3_a8e6dbb4e20c_Class13 ( obj_c4d4ad4f_7bf9_4b42_b322_fc345aaf3bd0 o )  ) ) ( type_06d20d84_f92d_45b0_a5a3_a8e6dbb4e20c_Class16 ( obj_c4d4ad4f_7bf9_4b42_b322_fc345aaf3bd0 o )  ) ) ( type_06d20d84_f92d_45b0_a5a3_a8e6dbb4e20c_Class15 ( obj_c4d4ad4f_7bf9_4b42_b322_fc345aaf3bd0 o )  ) ) ( type_06d20d84_f92d_45b0_a5a3_a8e6dbb4e20c_Class41 ( obj_c4d4ad4f_7bf9_4b42_b322_fc345aaf3bd0 o )  ) ) ( type_06d20d84_f92d_45b0_a5a3_a8e6dbb4e20c_Class2 ( obj_c4d4ad4f_7bf9_4b42_b322_fc345aaf3bd0 o )  ) )):named c34))
(assert (! (exists ((o Int)) (and (and (and ( type_06d20d84_f92d_45b0_a5a3_a8e6dbb4e20c_Class40 ( obj_c4d4ad4f_7bf9_4b42_b322_fc345aaf3bd0 o )  )  ( type_06d20d84_f92d_45b0_a5a3_a8e6dbb4e20c_Class21 ( obj_c4d4ad4f_7bf9_4b42_b322_fc345aaf3bd0 o )  ) ) ( type_06d20d84_f92d_45b0_a5a3_a8e6dbb4e20c_Class2 ( obj_c4d4ad4f_7bf9_4b42_b322_fc345aaf3bd0 o )  ) ) ( type_06d20d84_f92d_45b0_a5a3_a8e6dbb4e20c_Class20 ( obj_c4d4ad4f_7bf9_4b42_b322_fc345aaf3bd0 o )  ) )):named c35))
(assert (! (exists ((o Int)) (and (and (and ( type_06d20d84_f92d_45b0_a5a3_a8e6dbb4e20c_Class41 ( obj_c4d4ad4f_7bf9_4b42_b322_fc345aaf3bd0 o )  )  ( type_06d20d84_f92d_45b0_a5a3_a8e6dbb4e20c_Class16 ( obj_c4d4ad4f_7bf9_4b42_b322_fc345aaf3bd0 o )  ) ) ( type_06d20d84_f92d_45b0_a5a3_a8e6dbb4e20c_Class15 ( obj_c4d4ad4f_7bf9_4b42_b322_fc345aaf3bd0 o )  ) ) ( type_06d20d84_f92d_45b0_a5a3_a8e6dbb4e20c_Class2 ( obj_c4d4ad4f_7bf9_4b42_b322_fc345aaf3bd0 o )  ) )):named c36))
(assert (! (exists ((o Int)) (and (and (and ( type_06d20d84_f92d_45b0_a5a3_a8e6dbb4e20c_Class42 ( obj_c4d4ad4f_7bf9_4b42_b322_fc345aaf3bd0 o )  )  ( type_06d20d84_f92d_45b0_a5a3_a8e6dbb4e20c_Class22 ( obj_c4d4ad4f_7bf9_4b42_b322_fc345aaf3bd0 o )  ) ) ( type_06d20d84_f92d_45b0_a5a3_a8e6dbb4e20c_Class35 ( obj_c4d4ad4f_7bf9_4b42_b322_fc345aaf3bd0 o )  ) ) ( type_06d20d84_f92d_45b0_a5a3_a8e6dbb4e20c_Class2 ( obj_c4d4ad4f_7bf9_4b42_b322_fc345aaf3bd0 o )  ) )):named c37))
(assert (! (exists ((o Int)) ( type_06d20d84_f92d_45b0_a5a3_a8e6dbb4e20c_Class43 ( obj_c4d4ad4f_7bf9_4b42_b322_fc345aaf3bd0 o )  ) ):named c38))
(assert (! (exists ((o Int)) (and (and (and (and (and (and ( type_06d20d84_f92d_45b0_a5a3_a8e6dbb4e20c_Class44 ( obj_c4d4ad4f_7bf9_4b42_b322_fc345aaf3bd0 o )  )  ( type_06d20d84_f92d_45b0_a5a3_a8e6dbb4e20c_Class33 ( obj_c4d4ad4f_7bf9_4b42_b322_fc345aaf3bd0 o )  ) ) ( type_06d20d84_f92d_45b0_a5a3_a8e6dbb4e20c_Class13 ( obj_c4d4ad4f_7bf9_4b42_b322_fc345aaf3bd0 o )  ) ) ( type_06d20d84_f92d_45b0_a5a3_a8e6dbb4e20c_Class16 ( obj_c4d4ad4f_7bf9_4b42_b322_fc345aaf3bd0 o )  ) ) ( type_06d20d84_f92d_45b0_a5a3_a8e6dbb4e20c_Class15 ( obj_c4d4ad4f_7bf9_4b42_b322_fc345aaf3bd0 o )  ) ) ( type_06d20d84_f92d_45b0_a5a3_a8e6dbb4e20c_Class41 ( obj_c4d4ad4f_7bf9_4b42_b322_fc345aaf3bd0 o )  ) ) ( type_06d20d84_f92d_45b0_a5a3_a8e6dbb4e20c_Class2 ( obj_c4d4ad4f_7bf9_4b42_b322_fc345aaf3bd0 o )  ) )):named c39))
(assert (! (exists ((o Int)) ( type_06d20d84_f92d_45b0_a5a3_a8e6dbb4e20c_Class45 ( obj_c4d4ad4f_7bf9_4b42_b322_fc345aaf3bd0 o )  ) ):named c40))
(assert (! (exists ((o Int)) ( type_06d20d84_f92d_45b0_a5a3_a8e6dbb4e20c_Class5 ( obj_c4d4ad4f_7bf9_4b42_b322_fc345aaf3bd0 o )  ) ):named c41))
(assert (! (exists ((o Int)) (and (and (and (and ( type_06d20d84_f92d_45b0_a5a3_a8e6dbb4e20c_Class6 ( obj_c4d4ad4f_7bf9_4b42_b322_fc345aaf3bd0 o )  )  ( type_06d20d84_f92d_45b0_a5a3_a8e6dbb4e20c_Class22 ( obj_c4d4ad4f_7bf9_4b42_b322_fc345aaf3bd0 o )  ) ) ( type_06d20d84_f92d_45b0_a5a3_a8e6dbb4e20c_Class35 ( obj_c4d4ad4f_7bf9_4b42_b322_fc345aaf3bd0 o )  ) ) ( type_06d20d84_f92d_45b0_a5a3_a8e6dbb4e20c_Class2 ( obj_c4d4ad4f_7bf9_4b42_b322_fc345aaf3bd0 o )  ) ) ( type_06d20d84_f92d_45b0_a5a3_a8e6dbb4e20c_Class42 ( obj_c4d4ad4f_7bf9_4b42_b322_fc345aaf3bd0 o )  ) )):named c42))
(assert (! (exists ((o Int)) ( type_06d20d84_f92d_45b0_a5a3_a8e6dbb4e20c_Class7 ( obj_c4d4ad4f_7bf9_4b42_b322_fc345aaf3bd0 o )  ) ):named c43))
(assert (! (exists ((o Int)) (and (and (and (and (and ( type_06d20d84_f92d_45b0_a5a3_a8e6dbb4e20c_Class8 ( obj_c4d4ad4f_7bf9_4b42_b322_fc345aaf3bd0 o )  )  ( type_06d20d84_f92d_45b0_a5a3_a8e6dbb4e20c_Class16 ( obj_c4d4ad4f_7bf9_4b42_b322_fc345aaf3bd0 o )  ) ) ( type_06d20d84_f92d_45b0_a5a3_a8e6dbb4e20c_Class15 ( obj_c4d4ad4f_7bf9_4b42_b322_fc345aaf3bd0 o )  ) ) ( type_06d20d84_f92d_45b0_a5a3_a8e6dbb4e20c_Class41 ( obj_c4d4ad4f_7bf9_4b42_b322_fc345aaf3bd0 o )  ) ) ( type_06d20d84_f92d_45b0_a5a3_a8e6dbb4e20c_Class10 ( obj_c4d4ad4f_7bf9_4b42_b322_fc345aaf3bd0 o )  ) ) ( type_06d20d84_f92d_45b0_a5a3_a8e6dbb4e20c_Class2 ( obj_c4d4ad4f_7bf9_4b42_b322_fc345aaf3bd0 o )  ) )):named c44))
(assert (! (exists ((o Int)) (and (and (and (and (and (and (and ( type_06d20d84_f92d_45b0_a5a3_a8e6dbb4e20c_Class9 ( obj_c4d4ad4f_7bf9_4b42_b322_fc345aaf3bd0 o )  )  ( type_06d20d84_f92d_45b0_a5a3_a8e6dbb4e20c_Class22 ( obj_c4d4ad4f_7bf9_4b42_b322_fc345aaf3bd0 o )  ) ) ( type_06d20d84_f92d_45b0_a5a3_a8e6dbb4e20c_Class35 ( obj_c4d4ad4f_7bf9_4b42_b322_fc345aaf3bd0 o )  ) ) ( type_06d20d84_f92d_45b0_a5a3_a8e6dbb4e20c_Class16 ( obj_c4d4ad4f_7bf9_4b42_b322_fc345aaf3bd0 o )  ) ) ( type_06d20d84_f92d_45b0_a5a3_a8e6dbb4e20c_Class15 ( obj_c4d4ad4f_7bf9_4b42_b322_fc345aaf3bd0 o )  ) ) ( type_06d20d84_f92d_45b0_a5a3_a8e6dbb4e20c_Class0 ( obj_c4d4ad4f_7bf9_4b42_b322_fc345aaf3bd0 o )  ) ) ( type_06d20d84_f92d_45b0_a5a3_a8e6dbb4e20c_Class41 ( obj_c4d4ad4f_7bf9_4b42_b322_fc345aaf3bd0 o )  ) ) ( type_06d20d84_f92d_45b0_a5a3_a8e6dbb4e20c_Class2 ( obj_c4d4ad4f_7bf9_4b42_b322_fc345aaf3bd0 o )  ) )):named c45))

 ;end of formula 